Minimize
114.54 x0_1 + 111.56 x0_3 + 114.54 x1_0 + 111.8 x1_2 + 111.8 x2_1 + 122.37 x2_3 + 166.0 x2_7 + 78.24 x2_9 + 111.56 x3_0 + 122.37 x3_2 + 207.23 x3_4 + 207.23 x4_3 + 88.04 x4_5 + 88.04 x5_4 + 202.35 x5_6 + 202.35 x6_5 + 128.44 x6_9 + 166.0 x7_2 + 73.13 x8_9 + 78.24 x9_2 + 128.44 x9_6 + 73.13 x9_8

Subject to
(x0_1 + x0_3) - (x1_0 + x3_0) = 0
(x1_0 + x1_2) - (x0_1 + x2_1) = 0
(x2_1 + x2_3 + x2_7 + x2_9) - (x1_2 + x3_2 + x7_2 + x9_2) = 0
(x3_0 + x3_2 + x3_4) - (x0_3 + x2_3 + x4_3) = 0
(x4_3 + x4_5) - (x3_4 + x5_4) = 0
(x5_4 + x5_6) - (x4_5 + x6_5) = 0
(x6_5 + x6_9) - (x5_6 + x9_6) = 0
(x7_2) - (x2_7) = 0
(x8_9) - (x9_8) = 0
(x9_2 + x9_6 + x9_8) - (x2_9 + x6_9 + x8_9) = 0

Bounds
x0_1 >= 1
x1_2 >= 1
x2_3 >= 1
x2_7 >= 1
x2_9 >= 1
x3_0 >= 1
x4_3 >= 1
x5_4 >= 1
x6_5 >= 1
x7_2 >= 1
x8_9 >= 1
x9_6 >= 1
x9_8 >= 1

End
